n_agents = 5;

% transfered from the photo2.dzn instance from the MZN benchmark
friends = [
{1,3,5}, % 01
{2,5},       % 02
{1,4},   % 03
{2,3},  % 04
{4,5},          % 05
];

enemies = [
{2,4,5}, % 01
{2,5},       % 02
{1,4},   % 03
{3,5},  % 04
{1,4},          % 05
];
